1072.81,52.78,63.26
1020.73,55.48,66.49
1099.34,51.51,61.73
1002.21,56.5,67.72
995.3,56.89,68.19
1063.27,53.26,63.83
1034.24,54.75,65.62
1055.08,53.67,64.32
1188.78,47.63,57.09
980.34,57.76,69.23
1009.5,56.09,67.23
958.52,59.08,70.8
965.38,58.66,70.3
988.21,57.3,68.67
1025.58,55.21,66.17
1037.52,54.58,65.41
1084.87,52.2,62.56
924.61,61.24,73.4
1004.46,56.37,67.56
1004.2,56.39,67.58
